/* Objective function */
min: 2x12 + 4x13 + 9x14 + 3x23 + x35 + 3x45 + 2x54;

x12 + x13 + x14 = 50;
x23 - x12 = 40;
x35 - x13 - x23 = 0;
x45 - x14 - x54 = -30;
x54 - x35 - x45 = -60;
x12 <= 10;
x35 <= 80;